c NeuroCodeBench 2.0 CNF formula with verdict Unsat
p cnf 16 37
-1 15 9 0
-1 -15 -6 5 0
-1 15 -9 -6 14 0
-1 -15 -6 -5 -9 0
1 6 7 -8 13 4 0
1 -6 -4 8 10 0
-1 15 -9 6 7 10 0
1 6 7 8 -10 -9 0
-1 15 -9 -6 -14 0
1 -6 4 -3 2 0
1 6 7 -8 -13 0
1 6 -7 2 0
-1 -15 6 -9 -13 0
-1 -15 -6 -5 9 -4 0
-1 -15 6 9 -10 14 0
1 -6 4 3 5 -13 0
1 6 7 8 -10 9 0
-1 -15 -6 -5 9 4 10 0
1 6 -7 -2 -4 0
-1 15 -9 6 7 -10 -12 0
-1 -15 6 9 -10 -14 0
1 6 -7 -2 4 16 0
-1 15 -9 6 7 -10 12 0
1 -6 -4 -8 -15 0
1 -6 4 -3 -2 0
1 6 7 8 10 0
1 -6 -4 8 -10 0
-1 -15 6 9 10 0
-1 -15 6 -9 13 0
1 -6 -4 -8 15 0
1 -6 4 3 -5 0
1 6 7 -8 13 -4 0
1 -6 4 3 5 13 0
-1 15 -9 6 -7 -3 0
1 6 -7 -2 4 -16 0
-1 15 -9 6 -7 3 0
-1 -15 -6 -5 9 4 -10 0
